m = 5; % number of couriers
n = 5; % number of packages

l = [9, 5, 4, 6, 9]; % maximum carriable weight per courier
s = [2, 4, 3, 3, 5]; % weight of each package

D = % distance matrix 
	 [| 7, 5, 8, 7, 2, 2
	 | 5, 5, 8, 8, 8, 3
	 | 8, 8, 4, 7, 7, 8
	 | 7, 8, 7, 7, 2, 8
	 | 2, 8, 7, 2, 5, 7
	 | 6, 7, 7, 5, 7, 5
	 |];